9435
9367
9258
9394
9276
9142
9430
9317
9258
9259
9100
9122
9266
9208
9303
9326
9214
9294
9332
9250
9386
9215
9166
9289
9108
9216
9276
9276
9211
9315
9379
9159
9340
9202
9183
9166
9436
9206
9196
9381
9277
9367
9351
9333
9282
9169
9182
9316
9284
9315
9331
9329
9205
9158
9211
9156
9265
9303
9426
9452
9185
9297
9394
9212
9183
9368
9236
9138
9242
9325
9162
9121
9200
9328
9232
9253
9258
9398
9151
9227
9426
9336
9226
9191
9225
9298
9166
9300
9175
9382
9351
9242
9230
9248
9198
9334
9231
9199
9171
9245
